62699363948429397855011,14,1,2,07,4,1,2,05,3,1,2,01,5,1,2,010,15,1,2,013,1,1,2,013,11,1,2,03,10,1,2,01,14,1,2,013,1,1,2,03,13,1,2,010,7,1,2,015,3,1,2,03,1,1,2,010,13,1,2,04,12,1,2,011,8,1,2,013,14,1,2,09,3,1,2,09,7,1,2,01,9,1,2,013,13,1,2,08,12,1,2,011,3,1,2,015,15,1,2,012,3,1,2,013,1,1,2,013,10,1,2,03,1,1,2,06,6,1,2,012,15,1,2,06,11,1,2,015,9,1,2,014,11,1,2,02,3,1,2,015,12,1,2,02,15,1,2,03,6,1,2,05,3,1,2,08,5,1,2,09,3,1,2,012,1,1,2,09,15,1,2,01,2,1,2,013,13,1,2,015,10,1,2,01,9,1,2,05,3,1,2,01,5,1,2,08,1,1,2,0